32	0

0	2	2	3
2	2	4	5
2	2	4	5
8	2	6	7
2	2	6	7
9	2	8	9
5	2	8	9
7	2	10	11
10	2	11	12
5	3	12	14	16
3	4	13	14	15	16
5	2	13	15
4	1	17
9	1	17
5	1	17
5	1	17
8	3	18	19	20
8	1	21
4	1	21
4	1	21
2	1	22
9	3	23	25	26
2	2	24	27
7	3	28	29	30
7	3	28	29	30
5	3	28	29	30
8	1	30
5	1	31
7	1	31
2	1	31
9	1	32
0	0
